K=2;
N=8;
P=[605 319];
R=[23 19];
A=[3 5];
C=[70 46];
M=[
[ 0 82 11 45 47 71 36 48 ]
[ 82 0 54 50 86 78 78 91 ]
[ 11 54 0 37 1 24 74 63 ]
[ 45 50 37 0 22 82 26 1 ]
[ 47 86 1 22 0 66 60 99 ]
[ 71 78 24 82 66 0 82 56 ]
[ 36 78 74 26 60 82 0 81 ]
[ 48 91 63 1 99 56 81 0 ]
];
